SCIP Status        : solving was interrupted [time limit reached]
Total Time         :    3600.00
  solving          :    3600.00
  presolving       :       0.24 (included in solving)
  reading          :       0.00
  copying          :       0.85 (50 #copies) (minimal 0.00, maximal 0.03, average 0.02)
Original Problem   :
  Problem name     : bbbenchmark/g05_60.9.cut
  Variables        : 61 (60 binary, 0 integer, 0 implicit integer, 1 continuous)
  Constraints      : 1 initial, 1 maximal
  Objective        : minimize, 1 non-zeros (abs.min = 1, abs.max = 1)
Presolved Problem  :
  Problem name     : t_bbbenchmark/g05_60.9.cut
  Variables        : 946 (60 binary, 0 integer, 885 implicit integer, 1 continuous)
  Constraints      : 886 initial, 6328 maximal
  Objective        : minimize, 1 non-zeros (abs.min = 1, abs.max = 1)
  Nonzeros         : 3601 constraint, 122 clique table
Presolvers         :   ExecTime  SetupTime  Calls  FixedVars   AggrVars   ChgTypes  ChgBounds   AddHoles    DelCons    AddCons   ChgSides   ChgCoefs
  boundshift       :       0.00       0.00      0          0          0          0          0          0          0          0          0          0
  convertinttobin  :       0.00       0.00      0          0          0          0          0          0          0          0          0          0
  domcol           :       0.00       0.00      1          0          0          0          0          0          0          0          0          0
  dualagg          :       0.00       0.00      0          0          0          0          0          0          0          0          0          0
  dualcomp         :       0.00       0.00      1          0          0          0          0          0          0          0          0          0
  dualinfer        :       0.00       0.00      0          0          0          0          0          0          0          0          0          0
  dualsparsify     :       0.00       0.00      1          0          0          0          0          0          0          0          0          0
  gateextraction   :       0.00       0.00      0          0          0          0          0          0          0          0          0          0
  implics          :       0.00       0.00      2          0          0          0          0          0          0          0          0          0
  inttobinary      :       0.00       0.00      0          0          0          0          0          0          0          0          0          0
  qpkktref         :       0.00       0.00      0          0          0          0          0          0          0          0          0          0
  redvub           :       0.00       0.00      0          0          0          0          0          0          0          0          0          0
  sparsify         :       0.00       0.00      1          0          0          0          0          0          0          0          0          0
  stuffing         :       0.00       0.00      0          0          0          0          0          0          0          0          0          0
  trivial          :       0.00       0.00      4          0          0          0          0          0          0          0          0          0
  tworowbnd        :       0.00       0.00      0          0          0          0          0          0          0          0          0          0
  dualfix          :       0.00       0.00      4          0          0          0          0          0          0          0          0          0
  genvbounds       :       0.00       0.00      0          0          0          0          0          0          0          0          0          0
  probing          :       0.14       0.00      1          0          0          0          0          0          0          0          0          0
  pseudoobj        :       0.00       0.00      1          0          0          0          1          0          0          0          0          0
  symmetry         :       0.00       0.00      0          0          0          0          0          0          0          0          0          0
  vbounds          :       0.00       0.00      1          0          0          0          0          0          0          0          0          0
  and              :       0.01       0.01      2          0          0          0          0          0          0          0          0          0
  linear           :       0.00       0.00      2          0          0          0          0          0          0          0          0          0
  logicor          :       0.00       0.00      0          0          0          0          0          0          0          0          0          0
  nonlinear        :       0.09       0.01      5          0          0          0          1          0          0        885          0          0
  benders          :       0.00       0.00      0          0          0          0          0          0          0          0          0          0
  components       :       0.00       0.00      1          0          0          0          0          0          0          0          0          0
  root node        :          -          -      -          0          -          -         47          -          -          -          -          -
Constraints        :     Number  MaxNumber  #Separate #Propagate    #EnfoLP    #EnfoRelax  #EnfoPS    #Check   #ResProp    Cutoffs    DomReds       Cuts    Applied      Conss   Children
  benderslp        :          0          0          0          0      92766          0          0       8205          0          0          0          0          0          0          0
  integral         :          0          0          0          0      92766          0          0       8205          0          0       9221          0          0       5242     179546
  and              :        885        885     101973     606054         10          0          0         32     117570         68    3416777       1441       1382          0          0
  linear           :          1          1        236     605986         10          0          0         30          0          0          0          0          0          0          0
  logicor          :          0+      5442          0     152801          0          0          0          0       1840        958        209          0          0          0          0
  benders          :          0          0          0          0         10          0          0         33          0          0          0          0          0          0          0
  countsols        :          0          0          0          0         10          0          0         33          0          0          0          0          0          0          0
  components       :          0          0          0          0          0          0          0          0          0          0          0          0          0          0          0
Constraint Timings :  TotalTime  SetupTime   Separate  Propagate     EnfoLP     EnfoPS     EnfoRelax   Check    ResProp    SB-Prop
  benderslp        :       0.06       0.00       0.00       0.00       0.06       0.00       0.00       0.00       0.00       0.00
  integral         :      56.33       0.00       0.00       0.00      56.32       0.00       0.00       0.01       0.00       0.00
  and              :      53.11       0.01      31.85      20.47       0.00       0.00       0.00       0.00       0.12       0.66
  linear           :       0.50       0.00       0.03       0.47       0.00       0.00       0.00       0.00       0.00       0.00
  logicor          :      12.32       0.00       0.00      12.28       0.00       0.00       0.00       0.00       0.01       0.03
  benders          :       0.00       0.00       0.00       0.00       0.00       0.00       0.00       0.00       0.00       0.00
  countsols        :       0.00       0.00       0.00       0.00       0.00       0.00       0.00       0.00       0.00       0.00
  components       :       0.22       0.00       0.00       0.22       0.00       0.00       0.00       0.00       0.00       0.00
Propagators        : #Propagate   #ResProp    Cutoffs    DomReds
  dualfix          :          4          0          0          0
  genvbounds       :          0          0          0          0
  nlobbt           :          0          0          0          0
  obbt             :          0          0          0          0
  probing          :          0          0          0          0
  pseudoobj        :     483938          0          0         47
  redcost          :     223834          0          0     509617
  rootredcost      :         22          0          0          0
  symmetry         :          0          0          0          0
  vbounds          :      37159          0          0          0
Propagator Timings :  TotalTime  SetupTime   Presolve  Propagate    ResProp    SB-Prop
  dualfix          :       0.00       0.00       0.00       0.00       0.00       0.00
  genvbounds       :       0.46       0.00       0.00       0.45       0.00       0.01
  nlobbt           :       0.00       0.00       0.00       0.00       0.00       0.00
  obbt             :       0.00       0.00       0.00       0.00       0.00       0.00
  probing          :       0.14       0.00       0.14       0.00       0.00       0.00
  pseudoobj        :       0.57       0.00       0.00       0.57       0.00       0.00
  redcost          :       7.17       0.00       0.00       7.16       0.00       0.01
  rootredcost      :       0.52       0.00       0.00       0.51       0.00       0.01
  symmetry         :       0.32       0.00       0.00       0.32       0.00       0.00
  vbounds          :       0.31       0.00       0.00       0.30       0.00       0.01
Conflict Analysis  :       Time      Calls    Success    DomReds  Conflicts   Literals    Reconvs ReconvLits   Dualrays   Nonzeros   LP Iters   (pool size: [10000,10000])
  propagation      :       0.01       1026        650          -        757       25.2          0        0.0          -          -          -
  infeasible LP    :       0.00          0          0          -          0        0.0          0        0.0          0        0.0          0
  bound exceed. LP :      15.30      12607       9645          -      56516       32.6         21       22.4          0        0.0      61266
  strong branching :       0.00          0          0          -          0        0.0          0        0.0          -          -          0
  pseudo solution  :       0.00          0          0          -          0        0.0          0        0.0          -          -          -
  applied globally :       0.20          -          -          0      24375       32.6          -          -          0          -          -
  applied locally  :          -          -          -          0          0        0.0          -          -          0          -          -
Separators         :   ExecTime  SetupTime      Calls  RootCalls    Cutoffs    DomReds  FoundCuts ViaPoolAdd  DirectAdd    Applied ViaPoolApp  DirectApp      Conss
  cut pool         :       1.83          -      16520        268          -          -      21834     300707          -          -          -          -          -    (maximal pool size:       1229)
  aggregation      :      23.56       0.00       4567        236          0          0         16         17          0         13         13          0          0
  > cmir           :          -          -          -          -          -          -          -         17          0         13         13          0          -
  > flowcover      :          -          -          -          -          -          -          -          0          0          0          0          0          -
  > knapsackcover  :          -          -          -          -          -          -          -          0          0          0          0          0          -
  cgmip            :       0.00       0.00          0          0          0          0          0          0          0          0          0          0          0
  clique           :       0.02       0.00        236        236          0          0          0          0          0          0          0          0          0
  closecuts        :       0.00       0.00          0          0          0          0          0          0          0          0          0          0          0
  convexproj       :       0.00       0.00          0          0          0          0          0          0          0          0          0          0          0
  disjunctive      :       0.00       0.00          0          0          0          0          0          0          0          0          0          0          0
  eccuts           :       0.00       0.00          0          0          0          0          0          0          0          0          0          0          0
  gauge            :       0.00       0.00          0          0          0          0          0          0          0          0          0          0          0
  gomory           :       0.00       0.00          0          0          0          0          0          0          0          0          0          0          0
  > gomorymi       :          -          -          -          -          -          -          -          0          0          0          0          0          -
  > strongcg       :          -          -          -          -          -          -          -          0          0          0          0          0          -
  impliedbounds    :       0.18       0.00       4567        236          0          0          1          0          0          0          0          0          0
  interlattice     :       0.40       0.00        177        177          0          0        177          0        177        176          0        176          0
  interminor       :       0.00       0.00          0          0          0          0          0          0          0          0          0          0          0
  intersub         :       0.00       0.00          0          0          0          0          0          0          0          0          0          0          0
  intobj           :       0.00       0.00          0          0          0          0          0          0          0          0          0          0          0
  mcf              :       0.01       0.00          1          1          0          0          0          0          0          0          0          0          0
  minor            :       0.00       0.00          0          0          0          0          0          0          0          0          0          0          0
  mixing           :       0.00       0.00       4567        236          0          0          0          0          0          0          0          0          0
  oddcycle         :       0.00       0.00          0          0          0          0          0          0          0          0          0          0          0
  rapidlearning    :       0.01       0.00          0          0          0          0          0          0          0          0          0          0          0
  rlt              :       0.00       0.00         10         10          0          0          0          0          0          0          0          0          0
  zerohalf         :      19.25       0.00       3640         20          0          0      21817     300690          0      61887      61887          0          0
Cutselectors       :   ExecTime  SetupTime      Calls  RootCalls   Selected     Forced   Filtered  RootSelec   RootForc   RootFilt 
  hybrid           :       0.22       0.00      10254        236      63458          0     238867        384          0         16
Pricers            :   ExecTime  SetupTime      Calls       Vars
  problem variables:       0.00          -          0          0
Branching Rules    :   ExecTime  SetupTime   BranchLP  BranchExt   BranchPS    Cutoffs    DomReds       Cuts      Conss   Children
  allfullstrong    :       0.00       0.00          0          0          0          0          0          0          0          0
  cloud            :       0.00       0.00          0          0          0          0          0          0          0          0
  distribution     :       0.00       0.00          0          0          0          0          0          0          0          0
  fullstrong       :       0.00       0.00          0          0          0          0          0          0          0          0
  inference        :       0.00       0.00          0          0          0          0          0          0          0          0
  leastinf         :       0.00       0.00          0          0          0          0          0          0          0          0
  lookahead        :       0.00       0.00          0          0          0          0          0          0          0          0
  mostinf          :       0.00       0.00          0          0          0          0          0          0          0          0
  multaggr         :       0.00       0.00          0          0          0          0          0          0          0          0
  nodereopt        :       0.00       0.00          0          0          0          0          0          0          0          0
  pscost           :       0.00       0.00          0          0          0          0          0          0          0          0
  random           :       0.00       0.00          0          0          0          0          0          0          0          0
  relpscost        :      55.94       0.00      92756          0          0          0       9221          0       5259     179546
  vanillafullstrong:       0.00       0.00          0          0          0          0          0          0          0          0
Primal Heuristics  :   ExecTime  SetupTime      Calls      Found       Best
  LP solutions     :       0.00          -          -         10         10
  relax solutions  :       0.00          -          -          0          0
  pseudo solutions :       0.00          -          -          0          0
  strong branching :       0.03          -          -          0          0
  actconsdiving    :       0.00       0.00          0          0          0
  adaptivediving   :       8.94       0.00        354          1          1
  alns             :       4.70       0.00         39         11          9
  bound            :       0.00       0.00          0          0          0
  clique           :       0.01       0.00          1          0          0
  coefdiving       :       0.00       0.00          0          0          0
  completesol      :       0.00       0.00          0          0          0
  conflictdiving   :       7.17       0.00        404          0          0
  crossover        :       0.04       0.00          1          0          0
  dins             :       0.00       0.00          0          0          0
  distributiondivin:      22.39       0.00        404          0          0
  dps              :       0.00       0.00          0          0          0
  dualval          :       0.00       0.00          0          0          0
  farkasdiving     :       0.00       0.00          0          0          0
  feaspump         :       0.02       0.00          0          0          0
  fixandinfer      :       0.00       0.00          0          0          0
  fracdiving       :      12.86       0.00        405          0          0
  gins             :       0.04       0.00          0          0          0
  guideddiving     :      12.37       0.00        405          0          0
  indicator        :       0.15       0.00          0          0          0
  indicatordiving  :       0.00       0.00          0          0          0
  intdiving        :       0.00       0.00          0          0          0
  intshifting      :       0.05       0.00         14          0          0
  linesearchdiving :      11.45       0.00        404          0          0
  localbranching   :       0.00       0.00          0          0          0
  locks            :       0.00       0.00          1          0          0
  lpface           :       0.13       0.00          0          0          0
  mpec             :       3.59       0.00          1          0          0
  multistart       :       0.00       0.00          0          0          0
  mutation         :       0.00       0.00          0          0          0
  nlpdiving        :       4.15       0.00          9          0          0
  objpscostdiving  :      13.63       0.00         52          4          1
  octane           :       0.00       0.00          0          0          0
  ofins            :       0.11       0.00          0          0          0
  oneopt           :       0.18       0.00         32          0          0
  padm             :       0.00       0.00          0          0          0
  proximity        :       0.00       0.00          0          0          0
  pscostdiving     :      13.35       0.00        404          1          1
  randrounding     :       0.91       0.00       8168          0          0
  rens             :       0.00       0.00          0          0          0
  reoptsols        :       0.00       0.00          0          0          0
  repair           :       0.00       0.00          0          0          0
  rins             :       3.00       0.00         12          0          0
  rootsoldiving    :       7.23       0.00         23          2          0
  rounding         :       0.67       0.00       4498          0          0
  shiftandpropagate:       0.00       0.00          0          0          0
  shifting         :      23.12       0.00      11481          9          9
  simplerounding   :       0.12       0.00          0          0          0
  subnlp           :      81.74       0.00          0          0          0
  trivial          :       0.00       0.00          2          2          2
  trivialnegation  :       0.00       0.00          0          0          0
  trustregion      :       0.00       0.00          0          0          0
  trysol           :       0.13       0.00          0          0          0
  twoopt           :       0.00       0.00          0          0          0
  undercover       :       0.13       0.00          1          0          0
  vbounds          :       0.00       0.00          0          0          0
  veclendiving     :       6.27       0.00        404          0          0
  zeroobj          :       0.00       0.00          0          0          0
  zirounding       :       0.36       0.00       1000          0          0
  other solutions  :          -          -          -          0          -
Diving (single)    :      Calls      Nodes   LP Iters Backtracks  Conflicts   MinDepth   MaxDepth   AvgDepth  RoundSols  NLeafSols  MinSolDpt  MaxSolDpt  AvgSolDpt
  actconsdiving    :          0          -          -          -          -          -          -          -          -          -          -          -          -
  coefdiving       :          0          -          -          -          -          -          -          -          -          -          -          -          -
  conflictdiving   :        404       7164      57582        410       6255         23         46       32.0          0          -          -          -          -
  distributiondivin:        404       4910     158152        639       5015         20         37       25.7          0          -          -          -          -
  farkasdiving     :          0          -          -          -          -          -          -          -          -          -          -          -          -
  fracdiving       :        405      44792     119811        287       1950         32        245      125.0          0          -          -          -          -
  guideddiving     :        405      38616     124181        299       2069         28        214      109.8          0          -          -          -          -
  indicatordiving  :          0          -          -          -          -          -          -          -          -          -          -          -          -
  linesearchdiving :        404      10575     118785        506       7285         25         62       40.1          0          -          -          -          -
  pscostdiving     :        404       7223     143903        421       6938         24         46       32.0          0          1         45         45       45.0
  veclendiving     :        404       7278      45065        408       7160         20         41       32.1          0          -          -          -          -
Diving (adaptive)  :      Calls      Nodes   LP Iters Backtracks  Conflicts   MinDepth   MaxDepth   AvgDepth  RoundSols  NLeafSols  MinSolDpt  MaxSolDpt  AvgSolDpt
  actconsdiving    :         37        480      17838         72        475         21         32       25.3          0          -          -          -          -
  coefdiving       :         94       1730      12517         94       1779         27         41       32.1          0          1         41         41       41.0
  conflictdiving   :          0          -          -          -          -          -          -          -          -          -          -          -          -
  distributiondivin:          0          -          -          -          -          -          -          -          -          -          -          -          -
  farkasdiving     :          0          -          -          -          -          -          -          -          -          -          -          -          -
  fracdiving       :         21       2445       6607         13         96         45        235      130.6          0          -          -          -          -
  guideddiving     :         25       2152       6137          8         78         34        154      101.3          0          -          -          -          -
  indicatordiving  :          0          -          -          -          -          -          -          -          -          -          -          -          -
  linesearchdiving :         46       1218      13051         58        859         27         58       40.6          0          -          -          -          -
  pscostdiving     :         55        978      19911         55        994         24         39       31.7          0          -          -          -          -
  veclendiving     :         76       1322       7877         77       1304         18         37       31.6          0          -          -          -          -
Neighborhoods      :      Calls  SetupTime  SolveTime SolveNodes       Sols       Best       Exp3  EpsGreedy        UCB TgtFixRate  Opt  Inf Node Stal  Sol  Usr Othr Actv
  rens             :          3       0.05       0.01          1          0          0    0.00000   -1.00000    0.37701      0.550    0    2    0    0    0    0    1    1
  rins             :          3       0.05       0.00          2          1          1    0.00000   -1.00000    0.51069      0.550    1    1    0    0    0    0    1    1
  mutation         :          6       0.18       0.54        201          2          2    0.00000   -1.00000    0.52778      0.506    2    2    0    2    0    0    0    1
  localbranching   :          3       0.08       0.05         36          0          0    0.00000   -1.00000    0.50878      0.437    0    3    0    0    0    0    0    1
  crossover        :          4       0.10       0.09         18          0          0    0.00000   -1.00000    0.52527      0.353    0    4    0    0    0    0    0    1
  proximity        :          9       0.36       2.05        414          6          4    0.00000   -1.00000    0.52685      0.475    4    1    0    4    0    0    0    1
  zeroobjective    :          6       0.17       0.36        187          1          1    0.00000   -1.00000    0.48030      0.506    1    3    0    2    0    0    0    1
  dins             :          5       0.14       0.17         68          1          1    0.00000   -1.00000    0.45128      0.522    1    2    0    1    0    0    1    1
  trustregion      :          0       0.00       0.00          0          0          0    0.00000   -1.00000    1.00000      0.900    0    0    0    0    0    0    0    0
Expressions        :   #IntEval  IntEvalTi   #RevProp  RevPropTi    DomReds    Cutoffs  #Estimate  EstimTime  Branching  #Simplify SimplifyTi Simplified
  pow              :          0       0.00          0       0.00          0          0          0       0.00          0          0       0.00          0
  prod             :       3540       0.02          0       0.00          0          0          0       0.00          0       2655       0.00          0
  sum              :          8       0.00          2       0.00          0          0          0       0.00          0          3       0.01          2
  var              :       3327       0.00          0       0.00          0          0          0       0.00          0       6378       0.00          0
  varidx           :          0       0.00          0       0.00          0          0          0       0.00          0          0       0.00          0
LP                 :       Time      Calls Iterations  Iter/call   Iter/sec  Time-0-It Calls-0-It    ItLimit
  primal LP        :     154.85      18108          0       0.00       0.00     154.79      18108
  dual LP          :    2897.84     212688   24387313     132.10    8415.69       8.64      28078
  lex dual LP      :       0.00          0          0       0.00          -
  barrier LP       :       0.00          0          0       0.00          -       0.00          0
  resolve instable :       0.00          0          0       0.00          -
  diving/probing LP:      86.01       9125    1026722     112.52   11937.24
  strong branching :      31.83       5843     406157      69.51   12760.19          -          -        105
    (at root node) :          -         20      11316     565.80          -
  conflict analysis:       7.67       6170      61266       9.93    7987.74
NLP relaxation     :
  solve time       :       4.14 (9 calls)
  convexity        :  nonconvex (1 linear rows, 0 convex ineq., 0 nonconvex ineq., 885 nonlinear eq. or two-sided ineq.)
NLP Solvers        :  #Problems  ProblemTi    #Solves  SolveTime      #Iter  Time/Iter      #Okay #TimeLimit #IterLimit #LObjLimit #Interrupt  #NumError #EvalError  #OutOfMem #LicenseEr #OtherTerm   #GlobOpt    #LocOpt  #Feasible #LocInfeas #GlobInfea #Unbounded   #Unknown
  ipopt            :          2       5.78         12       7.84        437       0.02         12          0          0          0          0          0          0          0          0          0          0          0          0          3          0          0          9
B&B Tree           :
  number of runs   :          1
  nodes            :     171612 (89773 internal, 81839 leaves)
  feasible leaves  :         10
  infeas. leaves   :        239
  objective leaves :      81589
  nodes (total)    :     171612 (89773 internal, 81839 leaves)
  nodes left       :       7879
  max depth        :         38
  max depth (total):         38
  backtracks       :      44335 (25.8%)
  early backtracks :          0 (0.0%)
  nodes exc. ref.  :          0 (0.0%)
  delayed cutoffs  :          5
  repropagations   :         91 (329 domain reductions, 1 cutoffs)
  avg switch length:       4.41
  switching time   :     184.95
Estim. Tree Size   :     566195
Estimation Tree    : 179547 nodes (171668 visited, 89773 internal, 81895 leaves, 7879 open), weight: 0.2546 completed 0.4600
Estimations        :      estim      value      trend resolution     smooth
  wbe              :     643223          -          -          -          -
  tree-profile     :         -1          -          -          -          -
  gap              :     650068    0.92327    0.00004        128     640455
  tree-weight      :     566196    0.25464    0.00047        128     565030
  leaf-frequency   :     530547    0.47705    0.00002        128     541078
  ssg              :     537613    0.42114   -0.00029        128     534391
  open-nodes       :    1240908 7879.00000   -1.87225        128    1672325
Root Node          :
  First LP value   : -1.00000000000000e+00
  First LP Iters   :        638 (21266.67 Iter/sec)
  First LP Time    :       0.03
  Final Dual Bound : -8.70334716821750e-01
  Final Root Iters :       7271
  Root LP Estimate : -5.30726968260238e-01
Solution           :
  Solutions found  :         40 (33 improvements)
  First Solution   : +1.00000000000000e+05   (in run 1, after 0 nodes, 0.04 seconds, depth 0, found by <trivial>)
  Gap First Sol.   :   infinite
  Gap Last Sol.    :      12.52 %
  Primal Bound     : -6.02259887005650e-01   (in run 1, after 83355 nodes, 1762.11 seconds, depth 22, found by <relaxation>)
  Dual Bound       : -6.52312289476122e-01
  Gap              :       8.31 %
Integrals          :      Total       Avg%
  primal-dual      :   45137.59      12.54
  primal-ref       :          -          - (not evaluated)
  dual-ref         :          -          - (not evaluated)
